602 10
2 2 2 2 2 2 2 2 2 2
0  0 0 0 0 0 0 0 0 0 0  60 2 12 22 32 42 52 62 72 82 92 102 112 122 132 142 152 162 172 182 192 202 212 222 232 242 252 262 272 282 292 302 312 322 332 342 352 362 372 382 392 402 412 422 432 442 452 462 472 482 492 502 512 522 532 542 552 562 572 582 592
66  1 0 0 0 0 0 0 0 0 0  1 3
84  0 0 1 0 0 0 0 0 0 0  1 4
26  0 0 0 1 0 0 0 0 0 0  1 5
29  0 0 0 0 0 0 0 1 0 0  1 6
94  0 0 0 0 0 0 0 0 0 1  1 7
98  0 0 0 0 0 0 1 0 0 0  1 8
7  0 0 0 0 0 0 0 0 1 0  1 9
98  0 0 0 0 0 1 0 0 0 0  1 10
45  0 1 0 0 0 0 0 0 0 0  1 11
43  0 0 0 0 1 0 0 0 0 0  1 602
32  0 0 0 1 0 0 0 0 0 0  1 13
97  1 0 0 0 0 0 0 0 0 0  1 14
55  0 0 0 0 0 0 1 0 0 0  1 15
88  0 0 1 0 0 0 0 0 0 0  1 16
93  0 0 0 0 0 0 0 0 1 0  1 17
88  0 0 0 0 0 0 0 0 0 1  1 18
20  0 1 0 0 0 0 0 0 0 0  1 19
50  0 0 0 0 1 0 0 0 0 0  1 20
17  0 0 0 0 0 0 0 1 0 0  1 21
5  0 0 0 0 0 1 0 0 0 0  1 602
43  0 0 0 0 1 0 0 0 0 0  1 23
68  0 0 0 1 0 0 0 0 0 0  1 24
47  0 0 0 0 0 0 0 0 1 0  1 25
68  0 0 0 0 0 0 0 0 0 1  1 26
57  0 1 0 0 0 0 0 0 0 0  1 27
20  0 0 0 0 0 0 1 0 0 0  1 28
81  0 0 0 0 0 1 0 0 0 0  1 29
60  0 0 1 0 0 0 0 0 0 0  1 30
94  0 0 0 0 0 0 0 1 0 0  1 31
62  1 0 0 0 0 0 0 0 0 0  1 602
57  0 1 0 0 0 0 0 0 0 0  1 33
40  0 0 0 0 0 1 0 0 0 0  1 34
78  1 0 0 0 0 0 0 0 0 0  1 35
9  0 0 0 0 0 0 1 0 0 0  1 36
49  0 0 1 0 0 0 0 0 0 0  1 37
17  0 0 0 0 0 0 0 0 0 1  1 38
32  0 0 0 1 0 0 0 0 0 0  1 39
30  0 0 0 0 1 0 0 0 0 0  1 40
87  0 0 0 0 0 0 0 0 1 0  1 41
77  0 0 0 0 0 0 0 1 0 0  1 602
52  1 0 0 0 0 0 0 0 0 0  1 43
30  0 0 0 0 1 0 0 0 0 0  1 44
48  0 0 0 1 0 0 0 0 0 0  1 45
48  0 0 0 0 0 1 0 0 0 0  1 46
26  0 1 0 0 0 0 0 0 0 0  1 47
17  0 0 0 0 0 0 0 0 0 1  1 48
93  0 0 0 0 0 0 1 0 0 0  1 49
97  0 0 0 0 0 0 0 0 1 0  1 50
49  0 0 0 0 0 0 0 1 0 0  1 51
89  0 0 1 0 0 0 0 0 0 0  1 602
95  0 0 0 0 0 0 0 1 0 0  1 53
33  1 0 0 0 0 0 0 0 0 0  1 54
5  0 1 0 0 0 0 0 0 0 0  1 55
17  0 0 0 0 0 0 1 0 0 0  1 56
70  0 0 0 0 0 1 0 0 0 0  1 57
57  0 0 0 1 0 0 0 0 0 0  1 58
34  0 0 0 0 1 0 0 0 0 0  1 59
61  0 0 1 0 0 0 0 0 0 0  1 60
62  0 0 0 0 0 0 0 0 1 0  1 61
39  0 0 0 0 0 0 0 0 0 1  1 602
97  0 0 0 0 0 0 0 1 0 0  1 63
92  0 0 0 0 0 1 0 0 0 0  1 64
31  0 1 0 0 0 0 0 0 0 0  1 65
5  0 0 0 0 0 0 0 0 1 0  1 66
79  0 0 1 0 0 0 0 0 0 0  1 67
5  0 0 0 0 1 0 0 0 0 0  1 68
67  0 0 0 1 0 0 0 0 0 0  1 69
5  1 0 0 0 0 0 0 0 0 0  1 70
78  0 0 0 0 0 0 0 0 0 1  1 71
60  0 0 0 0 0 0 1 0 0 0  1 602
79  0 0 1 0 0 0 0 0 0 0  1 73
6  0 0 0 0 1 0 0 0 0 0  1 74
20  0 0 0 0 0 0 0 1 0 0  1 75
45  0 0 0 0 0 0 0 0 1 0  1 76
34  0 0 0 0 0 0 1 0 0 0  1 77
24  0 0 0 1 0 0 0 0 0 0  1 78
26  0 0 0 0 0 0 0 0 0 1  1 79
68  0 0 0 0 0 1 0 0 0 0  1 80
16  0 1 0 0 0 0 0 0 0 0  1 81
46  1 0 0 0 0 0 0 0 0 0  1 602
58  0 0 0 0 0 0 0 1 0 0  1 83
50  0 0 0 0 0 0 0 0 0 1  1 84
19  0 0 1 0 0 0 0 0 0 0  1 85
93  0 0 0 0 0 0 0 0 1 0  1 86
49  0 0 0 0 0 0 1 0 0 0  1 87
25  0 0 0 1 0 0 0 0 0 0  1 88
85  0 0 0 0 0 1 0 0 0 0  1 89
50  0 0 0 0 1 0 0 0 0 0  1 90
93  1 0 0 0 0 0 0 0 0 0  1 91
26  0 1 0 0 0 0 0 0 0 0  1 602
81  0 0 0 0 0 0 0 0 0 1  1 93
71  0 0 0 0 0 0 1 0 0 0  1 94
7  0 0 0 0 0 1 0 0 0 0  1 95
39  0 1 0 0 0 0 0 0 0 0  1 96
16  0 0 1 0 0 0 0 0 0 0  1 97
42  0 0 0 0 0 0 0 0 1 0  1 98
71  1 0 0 0 0 0 0 0 0 0  1 99
84  0 0 0 0 1 0 0 0 0 0  1 100
56  0 0 0 1 0 0 0 0 0 0  1 101
99  0 0 0 0 0 0 0 1 0 0  1 602
9  0 0 0 0 0 0 0 0 1 0  1 103
86  1 0 0 0 0 0 0 0 0 0  1 104
6  0 0 0 0 0 0 0 0 0 1  1 105
71  0 0 0 1 0 0 0 0 0 0  1 106
97  0 0 0 0 0 0 1 0 0 0  1 107
85  0 0 0 0 0 1 0 0 0 0  1 108
16  0 0 0 0 1 0 0 0 0 0  1 109
42  0 0 1 0 0 0 0 0 0 0  1 110
81  0 0 0 0 0 0 0 1 0 0  1 111
81  0 1 0 0 0 0 0 0 0 0  1 602
72  0 0 0 0 1 0 0 0 0 0  1 113
24  0 0 0 1 0 0 0 0 0 0  1 114
30  1 0 0 0 0 0 0 0 0 0  1 115
56  0 0 0 0 0 0 0 0 1 0  1 116
43  0 0 1 0 0 0 0 0 0 0  1 117
61  0 1 0 0 0 0 0 0 0 0  1 118
82  0 0 0 0 0 0 0 1 0 0  1 119
40  0 0 0 0 0 0 1 0 0 0  1 120
59  0 0 0 0 0 1 0 0 0 0  1 121
43  0 0 0 0 0 0 0 0 0 1  1 602
43  0 0 0 0 0 0 0 0 0 1  1 123
13  0 1 0 0 0 0 0 0 0 0  1 124
70  0 0 0 0 0 0 1 0 0 0  1 125
93  0 0 0 0 0 0 0 1 0 0  1 126
95  1 0 0 0 0 0 0 0 0 0  1 127
12  0 0 0 0 0 0 0 0 1 0  1 128
15  0 0 0 0 1 0 0 0 0 0  1 129
78  0 0 1 0 0 0 0 0 0 0  1 130
97  0 0 0 0 0 1 0 0 0 0  1 131
14  0 0 0 1 0 0 0 0 0 0  1 602
14  1 0 0 0 0 0 0 0 0 0  1 133
26  0 0 0 0 0 0 1 0 0 0  1 134
71  0 1 0 0 0 0 0 0 0 0  1 135
46  0 0 0 1 0 0 0 0 0 0  1 136
80  0 0 0 0 0 0 0 0 1 0  1 137
31  0 0 0 0 0 1 0 0 0 0  1 138
37  0 0 0 0 1 0 0 0 0 0  1 139
27  0 0 0 0 0 0 0 0 0 1  1 140
92  0 0 0 0 0 0 0 1 0 0  1 141
67  0 0 1 0 0 0 0 0 0 0  1 602
12  0 0 1 0 0 0 0 0 0 0  1 143
43  1 0 0 0 0 0 0 0 0 0  1 144
96  0 0 0 0 0 1 0 0 0 0  1 145
7  0 0 0 0 0 0 1 0 0 0  1 146
45  0 0 0 1 0 0 0 0 0 0  1 147
20  0 0 0 0 0 0 0 1 0 0  1 148
13  0 1 0 0 0 0 0 0 0 0  1 149
29  0 0 0 0 0 0 0 0 0 1  1 150
60  0 0 0 0 1 0 0 0 0 0  1 151
33  0 0 0 0 0 0 0 0 1 0  1 602
78  0 1 0 0 0 0 0 0 0 0  1 153
50  0 0 0 0 0 1 0 0 0 0  1 154
84  0 0 0 0 0 0 1 0 0 0  1 155
42  1 0 0 0 0 0 0 0 0 0  1 156
84  0 0 0 0 0 0 0 0 1 0  1 157
30  0 0 0 0 1 0 0 0 0 0  1 158
76  0 0 0 0 0 0 0 0 0 1  1 159
57  0 0 1 0 0 0 0 0 0 0  1 160
87  0 0 0 0 0 0 0 1 0 0  1 161
59  0 0 0 1 0 0 0 0 0 0  1 602
49  0 0 0 0 1 0 0 0 0 0  1 163
50  0 0 0 0 0 0 0 1 0 0  1 164
15  0 1 0 0 0 0 0 0 0 0  1 165
13  0 0 0 0 0 0 0 0 1 0  1 166
93  1 0 0 0 0 0 0 0 0 0  1 167
50  0 0 0 0 0 0 1 0 0 0  1 168
32  0 0 0 0 0 0 0 0 0 1  1 169
59  0 0 0 0 0 1 0 0 0 0  1 170
10  0 0 0 1 0 0 0 0 0 0  1 171
35  0 0 1 0 0 0 0 0 0 0  1 602
25  0 1 0 0 0 0 0 0 0 0  1 173
47  1 0 0 0 0 0 0 0 0 0  1 174
60  0 0 0 0 0 0 0 1 0 0  1 175
33  0 0 0 0 0 0 0 0 1 0  1 176
53  0 0 0 0 1 0 0 0 0 0  1 177
37  0 0 0 0 0 1 0 0 0 0  1 178
73  0 0 0 0 0 0 0 0 0 1  1 179
22  0 0 1 0 0 0 0 0 0 0  1 180
87  0 0 0 1 0 0 0 0 0 0  1 181
79  0 0 0 0 0 0 1 0 0 0  1 602
84  1 0 0 0 0 0 0 0 0 0  1 183
83  0 0 0 0 0 0 1 0 0 0  1 184
71  0 1 0 0 0 0 0 0 0 0  1 185
68  0 0 0 0 0 1 0 0 0 0  1 186
89  0 0 0 0 0 0 0 0 0 1  1 187
11  0 0 0 0 0 0 0 0 1 0  1 188
60  0 0 0 1 0 0 0 0 0 0  1 189
50  0 0 0 0 1 0 0 0 0 0  1 190
33  0 0 1 0 0 0 0 0 0 0  1 191
97  0 0 0 0 0 0 0 1 0 0  1 602
14  0 1 0 0 0 0 0 0 0 0  1 193
38  1 0 0 0 0 0 0 0 0 0  1 194
88  0 0 0 0 0 0 1 0 0 0  1 195
5  0 0 0 0 0 1 0 0 0 0  1 196
77  0 0 0 0 1 0 0 0 0 0  1 197
92  0 0 0 0 0 0 0 1 0 0  1 198
24  0 0 0 0 0 0 0 0 1 0  1 199
73  0 0 1 0 0 0 0 0 0 0  1 200
52  0 0 0 0 0 0 0 0 0 1  1 201
71  0 0 0 1 0 0 0 0 0 0  1 602
62  0 0 0 0 0 0 0 1 0 0  1 203
19  0 0 0 0 0 0 0 0 0 1  1 204
38  0 0 0 0 0 0 1 0 0 0  1 205
15  0 0 0 1 0 0 0 0 0 0  1 206
64  0 0 0 0 0 0 0 0 1 0  1 207
64  0 0 1 0 0 0 0 0 0 0  1 208
8  0 0 0 0 1 0 0 0 0 0  1 209
61  0 1 0 0 0 0 0 0 0 0  1 210
19  1 0 0 0 0 0 0 0 0 0  1 211
33  0 0 0 0 0 1 0 0 0 0  1 602
33  0 0 1 0 0 0 0 0 0 0  1 213
46  0 0 0 0 0 1 0 0 0 0  1 214
74  0 0 0 0 1 0 0 0 0 0  1 215
56  1 0 0 0 0 0 0 0 0 0  1 216
84  0 0 0 0 0 0 1 0 0 0  1 217
83  0 0 0 0 0 0 0 0 0 1  1 218
19  0 0 0 0 0 0 0 0 1 0  1 219
8  0 0 0 0 0 0 0 1 0 0  1 220
32  0 0 0 1 0 0 0 0 0 0  1 221
97  0 1 0 0 0 0 0 0 0 0  1 602
50  0 0 0 0 1 0 0 0 0 0  1 223
71  0 0 0 1 0 0 0 0 0 0  1 224
50  0 0 0 0 0 0 1 0 0 0  1 225
97  0 0 1 0 0 0 0 0 0 0  1 226
8  0 0 0 0 0 0 0 0 0 1  1 227
17  1 0 0 0 0 0 0 0 0 0  1 228
19  0 0 0 0 0 0 0 1 0 0  1 229
92  0 0 0 0 0 0 0 0 1 0  1 230
54  0 0 0 0 0 1 0 0 0 0  1 231
52  0 1 0 0 0 0 0 0 0 0  1 602
32  0 0 0 0 0 0 0 0 1 0  1 233
79  0 1 0 0 0 0 0 0 0 0  1 234
97  0 0 0 1 0 0 0 0 0 0  1 235
38  0 0 0 0 0 1 0 0 0 0  1 236
49  0 0 0 0 0 0 0 0 0 1  1 237
76  0 0 0 0 1 0 0 0 0 0  1 238
76  0 0 0 0 0 0 1 0 0 0  1 239
56  1 0 0 0 0 0 0 0 0 0  1 240
78  0 0 1 0 0 0 0 0 0 0  1 241
54  0 0 0 0 0 0 0 1 0 0  1 602
13  0 0 0 0 0 1 0 0 0 0  1 243
5  0 0 0 1 0 0 0 0 0 0  1 244
25  0 0 1 0 0 0 0 0 0 0  1 245
86  1 0 0 0 0 0 0 0 0 0  1 246
95  0 1 0 0 0 0 0 0 0 0  1 247
28  0 0 0 0 0 0 0 0 0 1  1 248
78  0 0 0 0 0 0 1 0 0 0  1 249
24  0 0 0 0 0 0 0 0 1 0  1 250
10  0 0 0 0 0 0 0 1 0 0  1 251
39  0 0 0 0 1 0 0 0 0 0  1 602
48  0 0 0 0 0 0 0 1 0 0  1 253
59  0 0 1 0 0 0 0 0 0 0  1 254
20  1 0 0 0 0 0 0 0 0 0  1 255
7  0 0 0 0 0 0 0 0 0 1  1 256
31  0 0 0 0 0 1 0 0 0 0  1 257
97  0 0 0 0 0 0 1 0 0 0  1 258
89  0 1 0 0 0 0 0 0 0 0  1 259
32  0 0 0 0 1 0 0 0 0 0  1 260
25  0 0 0 1 0 0 0 0 0 0  1 261
41  0 0 0 0 0 0 0 0 1 0  1 602
87  0 0 0 0 0 1 0 0 0 0  1 263
18  1 0 0 0 0 0 0 0 0 0  1 264
48  0 0 0 0 0 0 0 0 0 1  1 265
43  0 0 1 0 0 0 0 0 0 0  1 266
30  0 1 0 0 0 0 0 0 0 0  1 267
97  0 0 0 0 0 0 1 0 0 0  1 268
47  0 0 0 0 0 0 0 1 0 0  1 269
65  0 0 0 0 0 0 0 0 1 0  1 270
69  0 0 0 1 0 0 0 0 0 0  1 271
27  0 0 0 0 1 0 0 0 0 0  1 602
71  0 0 0 0 0 0 1 0 0 0  1 273
20  0 0 0 0 0 1 0 0 0 0  1 274
20  0 0 0 0 0 0 0 0 1 0  1 275
78  0 1 0 0 0 0 0 0 0 0  1 276
39  0 0 0 1 0 0 0 0 0 0  1 277
17  1 0 0 0 0 0 0 0 0 0  1 278
50  0 0 0 0 0 0 0 1 0 0  1 279
44  0 0 1 0 0 0 0 0 0 0  1 280
42  0 0 0 0 0 0 0 0 0 1  1 281
38  0 0 0 0 1 0 0 0 0 0  1 602
50  1 0 0 0 0 0 0 0 0 0  1 283
42  0 0 0 0 0 0 0 0 0 1  1 284
72  0 0 0 1 0 0 0 0 0 0  1 285
7  0 0 0 0 0 1 0 0 0 0  1 286
77  0 1 0 0 0 0 0 0 0 0  1 287
58  0 0 0 0 0 0 0 1 0 0  1 288
78  0 0 0 0 1 0 0 0 0 0  1 289
89  0 0 1 0 0 0 0 0 0 0  1 290
70  0 0 0 0 0 0 1 0 0 0  1 291
36  0 0 0 0 0 0 0 0 1 0  1 602
32  0 0 0 1 0 0 0 0 0 0  1 293
95  0 0 0 0 0 0 0 0 0 1  1 294
13  0 0 1 0 0 0 0 0 0 0  1 295
73  1 0 0 0 0 0 0 0 0 0  1 296
97  0 0 0 0 0 0 1 0 0 0  1 297
24  0 0 0 0 0 0 0 0 1 0  1 298
49  0 0 0 0 1 0 0 0 0 0  1 299
57  0 0 0 0 0 1 0 0 0 0  1 300
68  0 1 0 0 0 0 0 0 0 0  1 301
94  0 0 0 0 0 0 0 1 0 0  1 602
66  1 0 0 0 0 0 0 0 0 0  1 303
84  0 0 1 0 0 0 0 0 0 0  1 304
26  0 0 0 1 0 0 0 0 0 0  1 305
29  0 0 0 0 0 0 0 1 0 0  1 306
94  0 0 0 0 0 0 0 0 0 1  1 307
98  0 0 0 0 0 0 1 0 0 0  1 308
7  0 0 0 0 0 0 0 0 1 0  1 309
98  0 0 0 0 0 1 0 0 0 0  1 310
45  0 1 0 0 0 0 0 0 0 0  1 311
43  0 0 0 0 1 0 0 0 0 0  1 602
32  0 0 0 1 0 0 0 0 0 0  1 313
97  1 0 0 0 0 0 0 0 0 0  1 314
55  0 0 0 0 0 0 1 0 0 0  1 315
88  0 0 1 0 0 0 0 0 0 0  1 316
93  0 0 0 0 0 0 0 0 1 0  1 317
88  0 0 0 0 0 0 0 0 0 1  1 318
20  0 1 0 0 0 0 0 0 0 0  1 319
50  0 0 0 0 1 0 0 0 0 0  1 320
17  0 0 0 0 0 0 0 1 0 0  1 321
5  0 0 0 0 0 1 0 0 0 0  1 602
43  0 0 0 0 1 0 0 0 0 0  1 323
68  0 0 0 1 0 0 0 0 0 0  1 324
47  0 0 0 0 0 0 0 0 1 0  1 325
68  0 0 0 0 0 0 0 0 0 1  1 326
57  0 1 0 0 0 0 0 0 0 0  1 327
20  0 0 0 0 0 0 1 0 0 0  1 328
81  0 0 0 0 0 1 0 0 0 0  1 329
60  0 0 1 0 0 0 0 0 0 0  1 330
94  0 0 0 0 0 0 0 1 0 0  1 331
62  1 0 0 0 0 0 0 0 0 0  1 602
57  0 1 0 0 0 0 0 0 0 0  1 333
40  0 0 0 0 0 1 0 0 0 0  1 334
78  1 0 0 0 0 0 0 0 0 0  1 335
9  0 0 0 0 0 0 1 0 0 0  1 336
49  0 0 1 0 0 0 0 0 0 0  1 337
17  0 0 0 0 0 0 0 0 0 1  1 338
32  0 0 0 1 0 0 0 0 0 0  1 339
30  0 0 0 0 1 0 0 0 0 0  1 340
87  0 0 0 0 0 0 0 0 1 0  1 341
77  0 0 0 0 0 0 0 1 0 0  1 602
52  1 0 0 0 0 0 0 0 0 0  1 343
30  0 0 0 0 1 0 0 0 0 0  1 344
48  0 0 0 1 0 0 0 0 0 0  1 345
48  0 0 0 0 0 1 0 0 0 0  1 346
26  0 1 0 0 0 0 0 0 0 0  1 347
17  0 0 0 0 0 0 0 0 0 1  1 348
93  0 0 0 0 0 0 1 0 0 0  1 349
97  0 0 0 0 0 0 0 0 1 0  1 350
49  0 0 0 0 0 0 0 1 0 0  1 351
89  0 0 1 0 0 0 0 0 0 0  1 602
95  0 0 0 0 0 0 0 1 0 0  1 353
33  1 0 0 0 0 0 0 0 0 0  1 354
5  0 1 0 0 0 0 0 0 0 0  1 355
17  0 0 0 0 0 0 1 0 0 0  1 356
70  0 0 0 0 0 1 0 0 0 0  1 357
57  0 0 0 1 0 0 0 0 0 0  1 358
34  0 0 0 0 1 0 0 0 0 0  1 359
61  0 0 1 0 0 0 0 0 0 0  1 360
62  0 0 0 0 0 0 0 0 1 0  1 361
39  0 0 0 0 0 0 0 0 0 1  1 602
97  0 0 0 0 0 0 0 1 0 0  1 363
92  0 0 0 0 0 1 0 0 0 0  1 364
31  0 1 0 0 0 0 0 0 0 0  1 365
5  0 0 0 0 0 0 0 0 1 0  1 366
79  0 0 1 0 0 0 0 0 0 0  1 367
5  0 0 0 0 1 0 0 0 0 0  1 368
67  0 0 0 1 0 0 0 0 0 0  1 369
5  1 0 0 0 0 0 0 0 0 0  1 370
78  0 0 0 0 0 0 0 0 0 1  1 371
60  0 0 0 0 0 0 1 0 0 0  1 602
79  0 0 1 0 0 0 0 0 0 0  1 373
6  0 0 0 0 1 0 0 0 0 0  1 374
20  0 0 0 0 0 0 0 1 0 0  1 375
45  0 0 0 0 0 0 0 0 1 0  1 376
34  0 0 0 0 0 0 1 0 0 0  1 377
24  0 0 0 1 0 0 0 0 0 0  1 378
26  0 0 0 0 0 0 0 0 0 1  1 379
68  0 0 0 0 0 1 0 0 0 0  1 380
16  0 1 0 0 0 0 0 0 0 0  1 381
46  1 0 0 0 0 0 0 0 0 0  1 602
58  0 0 0 0 0 0 0 1 0 0  1 383
50  0 0 0 0 0 0 0 0 0 1  1 384
19  0 0 1 0 0 0 0 0 0 0  1 385
93  0 0 0 0 0 0 0 0 1 0  1 386
49  0 0 0 0 0 0 1 0 0 0  1 387
25  0 0 0 1 0 0 0 0 0 0  1 388
85  0 0 0 0 0 1 0 0 0 0  1 389
50  0 0 0 0 1 0 0 0 0 0  1 390
93  1 0 0 0 0 0 0 0 0 0  1 391
26  0 1 0 0 0 0 0 0 0 0  1 602
81  0 0 0 0 0 0 0 0 0 1  1 393
71  0 0 0 0 0 0 1 0 0 0  1 394
7  0 0 0 0 0 1 0 0 0 0  1 395
39  0 1 0 0 0 0 0 0 0 0  1 396
16  0 0 1 0 0 0 0 0 0 0  1 397
42  0 0 0 0 0 0 0 0 1 0  1 398
71  1 0 0 0 0 0 0 0 0 0  1 399
84  0 0 0 0 1 0 0 0 0 0  1 400
56  0 0 0 1 0 0 0 0 0 0  1 401
99  0 0 0 0 0 0 0 1 0 0  1 602
9  0 0 0 0 0 0 0 0 1 0  1 403
86  1 0 0 0 0 0 0 0 0 0  1 404
6  0 0 0 0 0 0 0 0 0 1  1 405
71  0 0 0 1 0 0 0 0 0 0  1 406
97  0 0 0 0 0 0 1 0 0 0  1 407
85  0 0 0 0 0 1 0 0 0 0  1 408
16  0 0 0 0 1 0 0 0 0 0  1 409
42  0 0 1 0 0 0 0 0 0 0  1 410
81  0 0 0 0 0 0 0 1 0 0  1 411
81  0 1 0 0 0 0 0 0 0 0  1 602
72  0 0 0 0 1 0 0 0 0 0  1 413
24  0 0 0 1 0 0 0 0 0 0  1 414
30  1 0 0 0 0 0 0 0 0 0  1 415
56  0 0 0 0 0 0 0 0 1 0  1 416
43  0 0 1 0 0 0 0 0 0 0  1 417
61  0 1 0 0 0 0 0 0 0 0  1 418
82  0 0 0 0 0 0 0 1 0 0  1 419
40  0 0 0 0 0 0 1 0 0 0  1 420
59  0 0 0 0 0 1 0 0 0 0  1 421
43  0 0 0 0 0 0 0 0 0 1  1 602
43  0 0 0 0 0 0 0 0 0 1  1 423
13  0 1 0 0 0 0 0 0 0 0  1 424
70  0 0 0 0 0 0 1 0 0 0  1 425
93  0 0 0 0 0 0 0 1 0 0  1 426
95  1 0 0 0 0 0 0 0 0 0  1 427
12  0 0 0 0 0 0 0 0 1 0  1 428
15  0 0 0 0 1 0 0 0 0 0  1 429
78  0 0 1 0 0 0 0 0 0 0  1 430
97  0 0 0 0 0 1 0 0 0 0  1 431
14  0 0 0 1 0 0 0 0 0 0  1 602
14  1 0 0 0 0 0 0 0 0 0  1 433
26  0 0 0 0 0 0 1 0 0 0  1 434
71  0 1 0 0 0 0 0 0 0 0  1 435
46  0 0 0 1 0 0 0 0 0 0  1 436
80  0 0 0 0 0 0 0 0 1 0  1 437
31  0 0 0 0 0 1 0 0 0 0  1 438
37  0 0 0 0 1 0 0 0 0 0  1 439
27  0 0 0 0 0 0 0 0 0 1  1 440
92  0 0 0 0 0 0 0 1 0 0  1 441
67  0 0 1 0 0 0 0 0 0 0  1 602
12  0 0 1 0 0 0 0 0 0 0  1 443
43  1 0 0 0 0 0 0 0 0 0  1 444
96  0 0 0 0 0 1 0 0 0 0  1 445
7  0 0 0 0 0 0 1 0 0 0  1 446
45  0 0 0 1 0 0 0 0 0 0  1 447
20  0 0 0 0 0 0 0 1 0 0  1 448
13  0 1 0 0 0 0 0 0 0 0  1 449
29  0 0 0 0 0 0 0 0 0 1  1 450
60  0 0 0 0 1 0 0 0 0 0  1 451
33  0 0 0 0 0 0 0 0 1 0  1 602
78  0 1 0 0 0 0 0 0 0 0  1 453
50  0 0 0 0 0 1 0 0 0 0  1 454
84  0 0 0 0 0 0 1 0 0 0  1 455
42  1 0 0 0 0 0 0 0 0 0  1 456
84  0 0 0 0 0 0 0 0 1 0  1 457
30  0 0 0 0 1 0 0 0 0 0  1 458
76  0 0 0 0 0 0 0 0 0 1  1 459
57  0 0 1 0 0 0 0 0 0 0  1 460
87  0 0 0 0 0 0 0 1 0 0  1 461
59  0 0 0 1 0 0 0 0 0 0  1 602
49  0 0 0 0 1 0 0 0 0 0  1 463
50  0 0 0 0 0 0 0 1 0 0  1 464
15  0 1 0 0 0 0 0 0 0 0  1 465
13  0 0 0 0 0 0 0 0 1 0  1 466
93  1 0 0 0 0 0 0 0 0 0  1 467
50  0 0 0 0 0 0 1 0 0 0  1 468
32  0 0 0 0 0 0 0 0 0 1  1 469
59  0 0 0 0 0 1 0 0 0 0  1 470
10  0 0 0 1 0 0 0 0 0 0  1 471
35  0 0 1 0 0 0 0 0 0 0  1 602
25  0 1 0 0 0 0 0 0 0 0  1 473
47  1 0 0 0 0 0 0 0 0 0  1 474
60  0 0 0 0 0 0 0 1 0 0  1 475
33  0 0 0 0 0 0 0 0 1 0  1 476
53  0 0 0 0 1 0 0 0 0 0  1 477
37  0 0 0 0 0 1 0 0 0 0  1 478
73  0 0 0 0 0 0 0 0 0 1  1 479
22  0 0 1 0 0 0 0 0 0 0  1 480
87  0 0 0 1 0 0 0 0 0 0  1 481
79  0 0 0 0 0 0 1 0 0 0  1 602
84  1 0 0 0 0 0 0 0 0 0  1 483
83  0 0 0 0 0 0 1 0 0 0  1 484
71  0 1 0 0 0 0 0 0 0 0  1 485
68  0 0 0 0 0 1 0 0 0 0  1 486
89  0 0 0 0 0 0 0 0 0 1  1 487
11  0 0 0 0 0 0 0 0 1 0  1 488
60  0 0 0 1 0 0 0 0 0 0  1 489
50  0 0 0 0 1 0 0 0 0 0  1 490
33  0 0 1 0 0 0 0 0 0 0  1 491
97  0 0 0 0 0 0 0 1 0 0  1 602
14  0 1 0 0 0 0 0 0 0 0  1 493
38  1 0 0 0 0 0 0 0 0 0  1 494
88  0 0 0 0 0 0 1 0 0 0  1 495
5  0 0 0 0 0 1 0 0 0 0  1 496
77  0 0 0 0 1 0 0 0 0 0  1 497
92  0 0 0 0 0 0 0 1 0 0  1 498
24  0 0 0 0 0 0 0 0 1 0  1 499
73  0 0 1 0 0 0 0 0 0 0  1 500
52  0 0 0 0 0 0 0 0 0 1  1 501
71  0 0 0 1 0 0 0 0 0 0  1 602
62  0 0 0 0 0 0 0 1 0 0  1 503
19  0 0 0 0 0 0 0 0 0 1  1 504
38  0 0 0 0 0 0 1 0 0 0  1 505
15  0 0 0 1 0 0 0 0 0 0  1 506
64  0 0 0 0 0 0 0 0 1 0  1 507
64  0 0 1 0 0 0 0 0 0 0  1 508
8  0 0 0 0 1 0 0 0 0 0  1 509
61  0 1 0 0 0 0 0 0 0 0  1 510
19  1 0 0 0 0 0 0 0 0 0  1 511
33  0 0 0 0 0 1 0 0 0 0  1 602
33  0 0 1 0 0 0 0 0 0 0  1 513
46  0 0 0 0 0 1 0 0 0 0  1 514
74  0 0 0 0 1 0 0 0 0 0  1 515
56  1 0 0 0 0 0 0 0 0 0  1 516
84  0 0 0 0 0 0 1 0 0 0  1 517
83  0 0 0 0 0 0 0 0 0 1  1 518
19  0 0 0 0 0 0 0 0 1 0  1 519
8  0 0 0 0 0 0 0 1 0 0  1 520
32  0 0 0 1 0 0 0 0 0 0  1 521
97  0 1 0 0 0 0 0 0 0 0  1 602
50  0 0 0 0 1 0 0 0 0 0  1 523
71  0 0 0 1 0 0 0 0 0 0  1 524
50  0 0 0 0 0 0 1 0 0 0  1 525
97  0 0 1 0 0 0 0 0 0 0  1 526
8  0 0 0 0 0 0 0 0 0 1  1 527
17  1 0 0 0 0 0 0 0 0 0  1 528
19  0 0 0 0 0 0 0 1 0 0  1 529
92  0 0 0 0 0 0 0 0 1 0  1 530
54  0 0 0 0 0 1 0 0 0 0  1 531
52  0 1 0 0 0 0 0 0 0 0  1 602
32  0 0 0 0 0 0 0 0 1 0  1 533
79  0 1 0 0 0 0 0 0 0 0  1 534
97  0 0 0 1 0 0 0 0 0 0  1 535
38  0 0 0 0 0 1 0 0 0 0  1 536
49  0 0 0 0 0 0 0 0 0 1  1 537
76  0 0 0 0 1 0 0 0 0 0  1 538
76  0 0 0 0 0 0 1 0 0 0  1 539
56  1 0 0 0 0 0 0 0 0 0  1 540
78  0 0 1 0 0 0 0 0 0 0  1 541
54  0 0 0 0 0 0 0 1 0 0  1 602
13  0 0 0 0 0 1 0 0 0 0  1 543
5  0 0 0 1 0 0 0 0 0 0  1 544
25  0 0 1 0 0 0 0 0 0 0  1 545
86  1 0 0 0 0 0 0 0 0 0  1 546
95  0 1 0 0 0 0 0 0 0 0  1 547
28  0 0 0 0 0 0 0 0 0 1  1 548
78  0 0 0 0 0 0 1 0 0 0  1 549
24  0 0 0 0 0 0 0 0 1 0  1 550
10  0 0 0 0 0 0 0 1 0 0  1 551
39  0 0 0 0 1 0 0 0 0 0  1 602
48  0 0 0 0 0 0 0 1 0 0  1 553
59  0 0 1 0 0 0 0 0 0 0  1 554
20  1 0 0 0 0 0 0 0 0 0  1 555
7  0 0 0 0 0 0 0 0 0 1  1 556
31  0 0 0 0 0 1 0 0 0 0  1 557
97  0 0 0 0 0 0 1 0 0 0  1 558
89  0 1 0 0 0 0 0 0 0 0  1 559
32  0 0 0 0 1 0 0 0 0 0  1 560
25  0 0 0 1 0 0 0 0 0 0  1 561
41  0 0 0 0 0 0 0 0 1 0  1 602
87  0 0 0 0 0 1 0 0 0 0  1 563
18  1 0 0 0 0 0 0 0 0 0  1 564
48  0 0 0 0 0 0 0 0 0 1  1 565
43  0 0 1 0 0 0 0 0 0 0  1 566
30  0 1 0 0 0 0 0 0 0 0  1 567
97  0 0 0 0 0 0 1 0 0 0  1 568
47  0 0 0 0 0 0 0 1 0 0  1 569
65  0 0 0 0 0 0 0 0 1 0  1 570
69  0 0 0 1 0 0 0 0 0 0  1 571
27  0 0 0 0 1 0 0 0 0 0  1 602
71  0 0 0 0 0 0 1 0 0 0  1 573
20  0 0 0 0 0 1 0 0 0 0  1 574
20  0 0 0 0 0 0 0 0 1 0  1 575
78  0 1 0 0 0 0 0 0 0 0  1 576
39  0 0 0 1 0 0 0 0 0 0  1 577
17  1 0 0 0 0 0 0 0 0 0  1 578
50  0 0 0 0 0 0 0 1 0 0  1 579
44  0 0 1 0 0 0 0 0 0 0  1 580
42  0 0 0 0 0 0 0 0 0 1  1 581
38  0 0 0 0 1 0 0 0 0 0  1 602
50  1 0 0 0 0 0 0 0 0 0  1 583
42  0 0 0 0 0 0 0 0 0 1  1 584
72  0 0 0 1 0 0 0 0 0 0  1 585
7  0 0 0 0 0 1 0 0 0 0  1 586
77  0 1 0 0 0 0 0 0 0 0  1 587
58  0 0 0 0 0 0 0 1 0 0  1 588
78  0 0 0 0 1 0 0 0 0 0  1 589
89  0 0 1 0 0 0 0 0 0 0  1 590
70  0 0 0 0 0 0 1 0 0 0  1 591
36  0 0 0 0 0 0 0 0 1 0  1 602
32  0 0 0 1 0 0 0 0 0 0  1 593
95  0 0 0 0 0 0 0 0 0 1  1 594
13  0 0 1 0 0 0 0 0 0 0  1 595
73  1 0 0 0 0 0 0 0 0 0  1 596
97  0 0 0 0 0 0 1 0 0 0  1 597
24  0 0 0 0 0 0 0 0 1 0  1 598
49  0 0 0 0 1 0 0 0 0 0  1 599
57  0 0 0 0 0 1 0 0 0 0  1 600
68  0 1 0 0 0 0 0 0 0 0  1 601
94  0 0 0 0 0 0 0 1 0 0  1 602
0  0 0 0 0 0 0 0 0 0 0  0
